8172
1 0 1 0 1 0 0 0 0 0 0 0 1 0 0 1 0 0 0 0 0 1 1 0 0 0 0 1 1 0
2 22 15 22 27 4 12 12 22 22 0 28 2 12 15 15 27 0 2 12 0 22 4 27 2 27 15 0 28 0 27 12 27 21 4 28 4 2 21 22 28 0 27 21 27 27 12 21 2 27 27 2 28 4 28 15 4 28 0 22 12 4 21 0 22 4 22 15 0 27